NAME : 60_5_08.50424.tour
COMMENT : Cost = 0_50424
COMMENT : Found by LKH [Keld Helsgaun] Thu Sep 14 11:14:43 2017
TYPE : TOUR
DIMENSION : 65
TOUR_SECTION
1
58
56
60
50
55
57
49
59
51
44
48
40
5
12
45
64
8
15
9
39
2
3
62
26
43
54
52
16
18
21
17
22
19
28
27
32
33
36
31
29
30
38
34
42
46
20
13
11
63
47
41
10
4
35
7
23
53
24
6
25
61
37
65
14
-1
EOF
